proyfinal/src/viki/013/experimentInOfficeAgust.take6.output/10975c70-a27c-4c32-a0db-da0fcff3bae1.als.dat
{'cnf.clauses': '118081',
 'cnf.totvars': '69608',
 'conflict literals': '32',
 'conflicts': '12',
 'decisions': '3527',
 'memused.mb': '15.36',
 'outcome': 'UNSAT',
 'propagations': '25707',
 'restarts': '1',
 'solver.msecs': 29,
 'task.msecs': 97}
