proyfinal/src/viki/013/experimentInOfficeAgust.take6.output/10975c70-a27c-4c32-a0db-da0fcff3bae1.als.out
Reading from standard input... Use '--help' for help.
============================[ Problem Statistics ]=============================
|                                                                             |
|  Number of variables:         69608                                         |
|  Number of clauses:          118081                                         |
|  Parse time:                   0.02 s                                       |
|                                                                             |
============================[ Search Statistics ]==============================
| Conflicts |          ORIGINAL         |          LEARNT          | Progress |
|           |    Vars  Clauses Literals |    Limit  Clauses Lit/Cl |          |
===============================================================================
===============================================================================
restarts              : 1
conflicts             : 12             (412 /sec)
decisions             : 3527           (0.00 % random) (121078 /sec)
propagations          : 25707          (882492 /sec)
conflict literals     : 32             (0.00 % deleted)
Memory used           : 15.36 MB
CPU time              : 0.02913 s

UNSATISFIABLE
